 16
 406270 182392 468242 749900 581384 334532 483985 342610 260722 970898 887883 657188 369265 252140 727195 971955
 837989 370555 843247 1625049 1127636 664244 900936 747010 517890 2092844 1749694 1376143 756658 483621 1583667 1826529
 4323280